PERSON = anon_enum(8);
GOOD =      {   TV,   CAR,  HOUSE, BOOK,  CASH };
available = [    4,     3,      3,  200,  3000 ];
value =     [  500,   2000, 10000,    2,     1 ];
npref =     [                     4,                3,                    4,               3,              3,                          5,                3,                    4 ];
good_pref = [ CAR, HOUSE, TV,  CASH, CAR,  CASH, BOOK, HOUSE, TV, CAR, BOOK, HOUSE, CAR,  TV,  TV, CAR, BOOK, CASH, HOUSE, TV, CAR, BOOK, HOUSE, CAR, CASH, HOUSE, CAR, TV, CASH ]; 
req_pref  = [   2,     1,  2,   500,   1,  3000,   50,     1,  1,   1,  100,     1,   2,   2,   3,   1,  100, 1400,     1,  2,   2,   50,     1,   2, 2000,     1,   2,  2, 2000 ];

